# Solution for model Objective
# Objective value = 6
M 6
W7 0
W10 0
W13 0
W14 0
W16 0
W20 0
W21 0
W22 0
W24 0
W25 0
W29 0
W30 0
W31 0
W32 0
W33 0
W34 0
W35 0
W36 0
W40 0
W41 0
W42 0
W43 0
W0 0
W1 0
W2 0
W3 0
W4 0
W5 0
W6 0
W8 2
W9 0
W11 0
W12 0
W15 1
W17 4
W18 0
W19 0
W23 4
W26 5
W27 5
W28 1
W37 0
W38 3
W39 6
d0_1 0
d0_2 0
d0_3 0
d0_4 0
d0_5 0
d0_6 1
d0_7 0
d0_8 0
d0_9 0
d0_0 0
d1_1 0
d1_2 0
d1_3 1
d1_4 0
d1_5 0
d1_6 0
d1_7 0
d1_8 0
d1_9 0
d1_0 0
d2_1 0
d2_2 0
d2_3 0
d2_4 0
d2_5 0
d2_6 0
d2_7 0
d2_8 0
d2_9 0
d2_0 1
d3_1 0
d3_2 1
d3_3 0
d3_4 0
d3_5 0
d3_6 0
d3_7 0
d3_8 0
d3_9 0
d3_0 0
d4_1 1
d4_2 0
d4_3 0
d4_4 0
d4_5 0
d4_6 0
d4_7 0
d4_8 0
d4_9 0
d4_0 0
d5_1 0
d5_2 0
d5_3 0
d5_4 0
d5_5 1
d5_6 0
d5_7 0
d5_8 0
d5_9 0
d5_0 0
d6_1 0
d6_2 0
d6_3 0
d6_4 1
d6_5 0
d6_6 0
d6_7 0
d6_8 0
d6_9 0
d6_0 0
